60
1 0 4
2 0 1
2 1 1
3 0 1
4 1 2
4 2 2
5 1 1
5 2 3
5 3 2
6 0 3
6 2 1
6 3 4
6 5 1
7 0 3
7 1 2
7 2 1
7 3 2
7 4 5
8 3 2
8 4 5
8 5 3
8 6 3
8 7 4
9 0 1
9 2 5
9 5 4
10 2 5
10 3 1
10 4 2
10 6 3
10 8 2
10 9 2
11 0 2
11 5 5
11 7 4
11 10 1
12 0 3
12 1 1
12 2 2
12 3 4
12 5 1
12 7 3
12 8 3
12 9 1
13 2 3
13 4 4
13 6 2
13 7 4
13 8 2
13 9 5
13 11 2
13 12 4
14 0 4
14 1 1
14 3 2
14 5 4
14 6 3
14 7 2
14 8 1
14 9 3
14 10 5
14 11 5
14 13 4
15 0 1
15 3 5
15 4 3
15 5 1
15 10 4
15 12 1
15 13 4
16 1 2
16 2 2
16 5 2
16 7 3
16 8 5
16 9 2
16 12 1
16 14 1
17 1 1
17 2 1
17 9 2
17 11 5
17 12 1
17 13 4
18 3 4
18 4 3
18 5 1
18 7 2
18 9 4
18 11 3
18 13 5
18 14 3
18 15 1
18 17 2
19 0 3
19 2 5
19 3 2
19 5 4
19 7 5
19 8 2
19 10 5
19 11 1
19 12 2
19 13 4
19 14 5
19 16 2
19 18 4
20 3 2
20 7 1
20 9 5
20 11 3
20 15 2
20 16 5
20 18 3
21 0 5
21 5 1
21 7 1
21 11 1
21 12 2
21 13 4
21 14 5
21 16 4
21 18 3
21 20 5
22 0 4
22 2 2
22 4 4
22 7 1
22 9 5
22 10 2
22 14 1
22 15 1
22 18 5
22 19 4
22 20 2
22 21 1
23 0 4
23 2 1
23 7 3
23 9 3
23 10 5
23 13 2
23 16 1
23 19 5
23 20 2
24 1 3
24 3 2
24 4 3
24 8 5
24 10 5
24 14 3
24 16 2
24 18 1
24 19 3
24 20 2
24 22 4
24 23 5
25 1 1
25 4 2
25 8 3
25 9 1
25 14 2
25 15 2
25 16 1
25 18 3
25 21 3
25 22 2
26 0 2
26 2 1
26 3 2
26 4 2
26 5 4
26 7 5
26 10 1
26 11 3
26 12 5
26 15 4
26 18 2
26 19 4
26 20 2
26 22 2
26 23 1
27 3 2
27 4 5
27 7 3
27 10 5
27 13 4
27 15 3
27 17 1
27 20 3
27 21 2
28 2 4
28 5 2
28 8 2
28 11 2
28 12 5
28 14 3
28 15 5
28 16 4
28 19 4
28 23 5
28 24 1
28 25 4
29 0 3
29 3 2
29 9 2
29 11 1
29 13 5
29 15 5
29 16 4
29 17 5
29 20 2
29 24 1
29 25 5
29 28 1
30 1 4
30 2 1
30 4 1
30 8 4
30 10 5
30 13 4
30 16 3
30 17 2
30 19 3
30 23 4
30 25 3
30 27 4
31 1 1
31 2 3
31 5 5
31 10 4
31 13 1
31 16 2
31 18 3
31 19 3
31 20 4
31 22 4
31 24 3
31 25 3
31 28 2
31 29 2
32 1 1
32 3 3
32 5 1
32 6 3
32 8 4
32 12 1
32 14 1
32 15 3
32 16 2
32 17 5
32 18 3
32 20 1
32 21 2
32 24 5
32 25 2
32 26 4
32 27 4
32 31 4
33 0 1
33 2 2
33 7 3
33 11 2
33 13 4
33 15 4
33 16 5
33 17 3
33 25 3
33 26 2
33 27 2
33 31 4
34 0 4
34 2 5
34 7 5
34 8 1
34 10 4
34 11 3
34 16 2
34 17 5
34 20 2
34 22 1
34 23 2
34 24 4
34 27 4
34 30 5
34 31 2
34 32 2
35 4 5
35 6 4
35 8 2
35 9 3
35 10 2
35 12 4
35 13 4
35 14 4
35 15 2
35 16 5
35 21 2
35 22 4
35 23 2
35 25 1
35 27 1
35 29 4
35 31 2
35 33 5
36 1 4
36 6 2
36 8 4
36 12 2
36 16 1
36 18 2
36 20 3
36 22 1
36 23 4
36 26 3
36 27 3
36 28 3
36 31 3
36 32 2
36 34 3
37 0 1
37 2 3
37 3 4
37 12 1
37 15 5
37 16 5
37 18 5
37 21 1
37 22 5
37 23 2
37 28 3
37 31 1
37 32 2
37 33 1
37 34 4
38 1 5
38 2 3
38 4 1
38 5 1
38 6 5
38 7 5
38 8 5
38 11 5
38 12 2
38 13 3
38 14 1
38 16 4
38 17 5
38 18 3
38 21 1
38 22 4
38 24 5
38 25 3
38 26 4
38 27 2
38 31 3
38 32 2
38 34 1
38 35 2
38 36 1
39 3 3
39 6 5
39 8 2
39 9 2
39 10 4
39 12 1
39 13 2
39 14 5
39 15 2
39 17 2
39 18 5
39 19 2
39 23 1
39 25 3
39 32 4
39 35 1
39 38 2
40 1 4
40 2 3
40 4 3
40 5 3
40 8 1
40 9 1
40 10 4
40 16 1
40 17 4
40 21 4
40 23 1
40 25 5
40 27 5
40 28 3
40 29 3
40 31 1
40 33 4
40 34 2
40 36 4
40 37 2
40 38 3
40 39 4
41 2 3
41 4 5
41 6 3
41 8 3
41 9 1
41 10 1
41 13 5
41 15 4
41 17 2
41 18 5
41 21 5
41 22 3
41 23 1
41 25 2
41 29 2
41 30 5
41 33 3
41 34 4
41 36 1
41 37 5
41 39 4
41 40 5
42 1 4
42 2 3
42 4 3
42 5 1
42 7 5
42 9 5
42 10 4
42 12 1
42 13 2
42 15 5
42 16 5
42 18 4
42 19 3
42 20 5
42 22 3
42 24 4
42 27 2
42 29 2
42 33 5
42 36 1
42 37 2
42 39 1
43 1 2
43 4 1
43 6 2
43 7 1
43 9 4
43 14 3
43 15 3
43 16 3
43 21 1
43 22 4
43 25 2
43 28 2
43 29 1
43 30 3
43 32 1
43 35 3
43 40 1
43 41 1
43 42 1
44 0 4
44 1 4
44 4 1
44 6 2
44 7 4
44 10 3
44 11 1
44 13 2
44 15 4
44 16 4
44 17 3
44 18 3
44 19 5
44 21 2
44 23 1
44 24 5
44 30 5
44 33 4
44 36 1
44 38 1
44 39 3
44 40 2
44 42 4
44 43 2
45 3 3
45 4 5
45 5 3
45 9 1
45 13 5
45 14 2
45 15 4
45 16 5
45 17 3
45 18 3
45 21 2
45 25 5
45 28 5
45 30 3
45 31 3
45 32 1
45 36 2
45 41 5
45 42 1
45 43 3
45 44 5
46 0 2
46 1 1
46 2 5
46 4 5
46 5 1
46 8 4
46 9 1
46 10 1
46 11 3
46 12 5
46 19 1
46 20 5
46 22 1
46 24 2
46 26 4
46 28 4
46 29 1
46 31 5
46 33 1
46 38 1
46 41 1
46 44 1
47 2 5
47 3 2
47 4 3
47 5 3
47 7 3
47 9 5
47 10 5
47 12 5
47 16 4
47 18 4
47 20 1
47 22 3
47 24 5
47 25 5
47 26 2
47 28 1
47 33 3
47 34 3
47 37 1
47 38 1
47 41 1
47 44 2
47 46 5
48 3 2
48 4 5
48 5 4
48 6 5
48 9 5
48 11 5
48 12 3
48 14 5
48 15 4
48 17 5
48 22 5
48 23 5
48 25 3
48 27 1
48 28 5
48 29 3
48 30 3
48 32 4
48 33 5
48 34 2
48 37 3
48 39 5
48 43 1
49 0 2
49 1 4
49 2 5
49 3 5
49 4 2
49 5 3
49 8 3
49 9 3
49 10 4
49 13 5
49 14 5
49 16 4
49 17 5
49 23 1
49 24 2
49 25 3
49 27 1
49 29 3
49 30 3
49 31 4
49 34 5
49 37 4
49 38 5
49 40 5
49 42 3
49 43 3
49 47 5
50 1 1
50 2 3
50 5 4
50 6 4
50 7 5
50 8 1
50 9 4
50 10 1
50 11 4
50 12 3
50 13 2
50 14 4
50 15 2
50 17 3
50 18 3
50 19 3
50 20 2
50 22 1
50 23 4
50 24 3
50 25 2
50 28 4
50 29 3
50 30 3
50 36 5
50 38 1
50 40 2
50 43 5
50 46 5
50 47 2
50 48 2
51 0 3
51 1 4
51 4 3
51 5 4
51 8 5
51 14 5
51 15 2
51 16 1
51 18 3
51 19 2
51 20 4
51 22 1
51 29 2
51 30 4
51 31 3
51 32 2
51 35 2
51 36 2
51 38 2
51 39 1
51 40 5
51 42 5
51 44 5
51 46 1
51 48 3
52 0 1
52 4 4
52 5 2
52 7 3
52 9 3
52 11 1
52 13 5
52 18 4
52 20 1
52 21 5
52 22 1
52 23 4
52 24 1
52 25 2
52 27 5
52 28 1
52 32 2
52 34 2
52 37 2
52 40 4
52 42 2
52 43 5
52 44 2
52 46 1
52 48 5
52 49 5
52 51 5
53 1 2
53 2 2
53 4 5
53 5 4
53 7 4
53 8 1
53 10 3
53 11 2
53 14 1
53 18 5
53 21 3
53 24 3
53 25 5
53 26 5
53 27 2
53 28 4
53 32 4
53 34 4
53 36 2
53 37 5
53 40 5
53 44 5
53 45 3
53 46 2
53 47 5
53 51 2
53 52 5
54 2 3
54 4 5
54 5 5
54 6 4
54 8 3
54 9 4
54 11 3
54 12 2
54 13 2
54 17 2
54 18 2
54 19 1
54 20 2
54 24 2
54 25 2
54 28 2
54 29 1
54 30 2
54 33 4
54 34 4
54 35 5
54 36 1
54 38 2
54 46 2
54 47 4
54 48 1
54 50 1
54 53 2
55 1 4
55 2 4
55 3 5
55 7 3
55 9 4
55 10 1
55 11 4
55 20 3
55 21 4
55 22 2
55 24 4
55 25 4
55 28 1
55 29 1
55 31 3
55 32 4
55 35 5
55 36 4
55 37 4
55 41 4
55 43 1
55 44 3
55 45 4
55 46 2
55 47 1
55 49 3
55 50 1
55 53 1
55 54 3
56 2 3
56 3 1
56 4 4
56 5 2
56 7 3
56 11 4
56 13 5
56 14 4
56 16 5
56 18 1
56 20 2
56 23 2
56 24 1
56 25 4
56 26 2
56 27 2
56 29 1
56 31 5
56 33 2
56 34 5
56 37 2
56 39 1
56 41 1
56 42 4
56 44 3
56 46 5
56 47 4
56 48 5
56 50 2
56 51 5
56 55 4
57 0 3
57 2 4
57 3 3
57 4 1
57 5 4
57 6 2
57 7 2
57 8 4
57 10 5
57 12 3
57 13 2
57 15 2
57 22 4
57 23 1
57 25 2
57 26 3
57 32 1
57 33 1
57 34 3
57 35 5
57 36 4
57 37 4
57 40 1
57 41 2
57 42 1
57 44 1
57 45 1
57 48 2
57 49 1
57 50 1
57 51 2
57 53 1
57 54 1
57 56 1
58 0 5
58 7 3
58 10 4
58 12 4
58 13 1
58 14 4
58 15 4
58 19 5
58 21 1
58 22 4
58 24 4
58 26 2
58 29 2
58 30 5
58 33 1
58 35 3
58 41 1
58 44 4
58 45 3
58 47 3
58 51 1
58 52 2
58 57 1
59 0 1
59 2 5
59 3 4
59 7 2
59 11 1
59 12 4
59 13 2
59 14 3
59 15 4
59 18 5
59 19 5
59 21 5
59 23 3
59 24 2
59 26 2
59 29 3
59 31 3
59 32 2
59 34 3
59 35 4
59 37 2
59 39 2
59 40 2
59 43 3
59 48 3
59 49 5
59 50 5
59 52 3
59 54 4
59 55 2
59 56 2
59 58 2
